c ---- [ banner ] ------------------------------------------------------------
c
c Kissat SAT Solver
c 
c Copyright (c) 2021-2024 Armin Biere University of Freiburg
c Copyright (c) 2019-2021 Armin Biere Johannes Kepler University Linz
c 
c Version 4.0.1 43f02cf3e992cb44653b35e5cb26f93281552ae0
c gcc (Ubuntu 13.2.0-23ubuntu4) 13.2.0 -W -Wall -O3 -DNDEBUG
c Thu Sep 12 12:27:46 CEST 2024 Linux abryzen9 6.8.0-41-generic x86_64
c
c ---- [ parsing ] -----------------------------------------------------------
c
c opened and reading DIMACS file:
c
c   /data/artifact/AMulet2.0_artifact/exp4/cnf_sopb_64/64_64_U_SP_DT_BK_GenMul_sopb.cnf
c
c parsed 'p cnf 27506 124621' header
c closing input after reading 2509503 bytes (2 MB)
c finished parsing after 0.03 seconds
c
c ---- [ options ] -----------------------------------------------------------
c
c --stable=0                       (different from default '1')
c
c ---- [ solving ] -----------------------------------------------------------
c
c  seconds switched rate     size/glue tier1  binary           remaining
c         MB reductions conflicts size  tier2     irredundant
c          level restarts redundant glue  trail           variables
c
c *  0.03 10 0 0 0  0 0   0   0 0.0 0 0 0 0 0% 10232 114387 27503 100%
c (  0.07 12 0 0 0  0 0   0   0 0.0 0 0 0 0 0% 10232 114387 27503 100%
c .  0.08 12 0 0 0  0 0   0   0 0.0 0 0 0 0 0% 10228 114387 27503 100%
c c  0.17 17 0 0 0  0 0   0   0 0.0 0 0 0 0 0% 14430 106011 25409 92%
c d  0.18 17 0 0 0  0 0   0   0 0.0 0 0 0 0 0% 10242 106011 25409 92%
c =  0.24 17 0 0 0  0 0   0   0 0.0 0 0 0 0 0% 10300 106009 25380 92%
c d  0.25 17 0 0 0  0 0   0   0 0.0 0 0 0 0 0% 10242 106009 25380 92%
c f  0.39 16 0 0 0  0 0   0   0 0.0 0 0 0 0 0% 15356 97847 28311 103%
c e  0.60 23 0 0 0  0 0   0   0 0.0 0 0 0 0 0% 9299 106300 19446 71%
c )  0.60 23 0 0 0  0 0   0   0 0.0 0 0 0 0 0% 9299 106300 19446 71%
c {  0.63 23 0 0 0  0 0   0   0 0.0 0 0 2 6 0% 9299 106300 19446 71%
c -  0.95 24 173 0 1 323 48 1000 721 4.7 28 6 3 8 16% 9353 106299 19446 71%
c -  1.25 24 224 0 2 439 44 2001 1357 4.3 26 6 3 10 22% 9392 106299 19446 71%
c c  1.44 20 225 0 2 482 40 2502 1791 4.0 24 6 3 11 23% 9412 106259 19437 71%
c d  1.45 20 225 0 2 482 40 2502 1785 4.0 24 6 3 11 23% 9394 106259 19437 71%
c u  1.47 20 225 0 2 482 40 2502 1483 4.0 24 6 3 11 23% 9406 106259 19437 71%
c v  1.50 20 225 0 2 482 40 2502 1297 4.0 24 6 3 11 23% 9407 106259 19437 71%
c w  1.52 20 225 0 2 482 40 2502 1296 4.0 24 6 3 11 23% 9407 106259 19437 71%
c x  1.54 20 225 0 2 482 40 2502 1296 4.0 24 6 3 11 23% 9407 106198 19437 71%
c =  1.62 23 225 0 2 482 40 2502 1296 4.0 24 6 3 11 23% 9603 106198 19339 70%
c
c  seconds   switched   rate       size/glue tier1     binary          remaining
c         MB  reductions conflicts       size  tier2      irredundant
c           level restarts    redundant    glue    trail          variables
c
c d  1.63 23 225 0 2 482 40 2502 1296 4.0 24 6 3 11 23% 9380 106198 19339 70%
c f  1.68 23 225 0 2 482 40 2502 1296 4.0 24 6 3 11 23% 10098 104734 20012 73%
c u  1.72 23 225 0 2 482 40 2502 1261 4.0 24 6 3 11 23% 10099 104734 20012 73%
c v  1.75 23 225 0 2 482 40 2502 1182 4.0 24 6 3 11 23% 10100 104734 20012 73%
c w  1.78 23 225 0 2 482 40 2502 1177 4.0 24 6 3 11 23% 10100 104734 20012 73%
c =  1.86 23 225 0 2 482 40 2502 1177 4.0 24 6 3 11 23% 10332 104734 19896 72%
c d  1.87 23 225 0 2 482 40 2502 1175 4.0 24 6 3 11 23% 10040 104734 19896 72%
c f  1.92 23 225 0 2 482 40 2502 1175 4.0 24 6 3 11 23% 11113 103064 20433 74%
c -  2.42 24 210 0 3 677 40 3416 1646 4.3 28 6 3 11 25% 11146 103064 20433 74%
c -  2.86 24 252 0 4 884 39 5148 2710 4.2 28 7 3 11 26% 11193 103064 20433 74%
c -  3.25 24 270 0 5 1052 38 7150 3762 3.8 32 8 3 11 26% 11285 103064 20433 74%
c c  3.63 24 267 0 5 1143 39 7708 4279 3.8 34 9 3 11 27% 11307 102852 20383 74%
c d  3.63 24 267 0 5 1143 39 7708 4252 3.8 34 9 3 11 27% 11195 102852 20376 74%
c u  3.66 24 267 0 5 1143 39 7708 3591 3.8 34 9 3 11 27% 11217 102852 20376 74%
c v  3.70 24 267 0 5 1143 39 7708 3246 3.8 34 9 3 11 27% 11218 102852 20376 74%
c w  3.77 24 267 0 5 1143 39 7708 3245 3.8 34 9 3 11 27% 11218 102852 20376 74%
c x  3.80 24 267 0 5 1143 39 7708 3245 3.8 34 9 3 11 27% 11218 102618 20376 74%
c =  3.94 24 267 0 5 1143 39 7708 3245 3.8 34 9 3 11 27% 12284 102618 19843 72%
c d  3.94 24 267 0 5 1143 39 7708 3202 3.8 34 9 3 11 27% 10998 102618 19840 72%
c t  3.96 24 267 0 5 1143 39 7708 3202 3.8 34 9 3 11 27% 10989 102618 19840 72%
c
c  seconds   switched    rate       size/glue tier1     binary           remaining
c         MB  reductions  conflicts       size  tier2       irredundant
c           level  restarts    redundant    glue    trail           variables
c
c f  4.00 24 267 0 5 1143 39 7708 3202 3.8 34 9 3 11 27% 11736 101494 20213 73%
c u  4.08 24 267 0 5 1143 39 7708 3074 3.8 34 9 3 11 27% 11737 101494 20213 73%
c v  4.10 24 267 0 5 1143 39 7708 3007 3.8 34 9 3 11 27% 11737 101494 20213 73%
c w  4.15 24 267 0 5 1143 39 7708 3002 3.8 34 9 3 11 27% 11737 101494 20213 73%
c x  4.18 24 267 0 5 1143 39 7708 3002 3.8 34 9 3 11 27% 11737 100904 20213 73%
c =  4.29 24 267 0 5 1143 39 7708 3002 3.8 34 9 3 11 27% 12527 100900 19818 72%
c d  4.30 24 267 0 5 1143 39 7708 2995 3.8 34 9 3 11 27% 11574 100900 19818 72%
c t  4.31 24 267 0 5 1143 39 7708 2995 3.8 34 9 3 11 27% 11492 100900 19818 72%
c f  4.35 24 267 0 5 1143 39 7708 2995 3.8 34 9 3 11 27% 13672 97626 20909 76%
c -  4.64 24 293 0 6 1219 37 9389 3836 3.8 33 9 3 11 26% 13731 97625 20909 76%
c o  4.82 24 292 0 6 1253 36 10089 4422 3.8 33 9 3 11 26% 13758 97625 20909 76%
c -  5.60 24 283 0 7 1442 36 11839 4987 4.1 36 9 2 12 28% 13816 97625 20909 76%
c s  5.71 24 287 0 7 1450 34 12508 5540 4.0 35 9 2 12 27% 13839 94357 20909 76%
c e  5.85 24 287 0 7 1450 34 12508 5540 4.0 35 9 2 12 27% 13148 94716 20272 74%
c 2  5.85 24 287 0 7 1450 34 12508 5540 4.0 35 9 2 12 27% 13147 94716 20272 74%
c s  5.86 24 287 0 7 1450 34 12508 5540 4.0 35 9 2 12 27% 13159 94103 20272 74%
c e  5.88 24 287 0 7 1450 34 12508 5540 4.0 35 9 2 12 27% 12812 94332 20103 73%
c ^  5.88 24 287 0 7 1450 34 12508 5540 4.0 35 9 2 12 27% 12812 94332 20103 73%
c -  6.24 24 293 0 8 1520 32 14484 5808 4.0 33 8 2 10 26% 12877 94332 20103 73%
c d  6.49 24 300 0 8 1572 31 15787 6800 4.1 34 8 2 10 26% 12465 94332 19838 72%
c
c  seconds   switched    rate        size/glue tier1     binary          remaining
c         MB  reductions   conflicts       size  tier2       irredundant
c           level  restarts     redundant    glue    trail          variables
c
c u  6.54 24 300 0 8 1572 31 15787 5977 4.1 34 8 2 10 26% 12483 94332 19838 72%
c v  6.59 24 300 0 8 1572 31 15787 5069 4.1 34 8 2 10 26% 12486 94332 19838 72%
c w  6.65 24 300 0 8 1572 31 15787 5069 4.1 34 8 2 10 26% 12486 94332 19838 72%
c x  6.68 24 300 0 8 1572 31 15787 5069 4.1 34 8 2 10 26% 12488 94142 19838 72%
c =  6.88 24 300 0 8 1572 31 15787 5069 4.1 34 8 2 10 26% 13192 94142 19486 71%
c d  6.89 24 300 0 8 1572 31 15787 4977 4.1 34 8 2 10 26% 12412 94142 19484 71%
c t  6.91 24 300 0 8 1572 31 15787 4977 4.1 34 8 2 10 26% 12362 94142 19484 71%
c f  6.98 24 300 0 8 1572 31 15787 4977 4.1 34 8 2 10 26% 12444 93959 19530 71%
c u  7.09 24 300 0 8 1572 31 15787 4794 4.1 34 8 2 10 26% 12444 93959 19530 71%
c v  7.13 24 300 0 8 1572 31 15787 4667 4.1 34 8 2 10 26% 12444 93959 19530 71%
c w  7.21 24 300 0 8 1572 31 15787 4653 4.1 34 8 2 10 26% 12444 93959 19530 71%
c x  7.24 24 300 0 8 1572 31 15787 4653 4.1 34 8 2 10 26% 12444 92558 19530 71%
c =  7.44 24 300 0 8 1572 31 15787 4653 4.1 34 8 2 10 26% 14124 92558 18690 68%
c d  7.45 24 300 0 8 1572 31 15787 4632 4.1 34 8 2 10 26% 11657 92558 18690 68%
c t  7.47 24 300 0 8 1572 31 15787 4632 4.1 34 8 2 10 26% 11654 92558 18690 68%
c -  7.80 24 313 0 9 1642 31 17313 5150 4.2 33 8 2 10 26% 11708 92558 18690 68%
c o  8.81 24 301 0 9 1933 31 20233 7611 4.1 36 9 2 10 26% 11770 92558 18690 68%
c -  8.85 24 301 0 10 1945 31 20313 6701 4.1 36 9 2 10 26% 11772 92558 18690 68%
c -  9.87 24 296 0 11 2163 30 23475 8204 4.0 36 9 2 10 28% 11827 92558 18690 68%
c s 10.46 24 307 0 11 2313 30 25010 9541 4.1 37 9 2 10 28% 11854 89749 18690 68%
c
c  seconds   switched     rate        size/glue tier1     binary         remaining
c         MB   reductions   conflicts       size  tier2      irredundant
c           level   restarts     redundant    glue    trail         variables
c
c e 10.59 24 307 0 11 2313 30 25010 9541 4.1 37 9 2 10 28% 9252 92862 17254 63%
c s 10.60 24 307 0 11 2313 30 25010 9541 4.1 37 9 2 10 28% 9260 92625 17254 63%
c e 10.62 24 307 0 11 2313 30 25010 9541 4.1 37 9 2 10 28% 9227 92656 17240 63%
c ^ 10.62 24 307 0 11 2313 30 25010 9541 4.1 37 9 2 10 28% 9227 92656 17240 63%
c - 11.02 24 312 0 12 2422 30 26795 8546 4.0 36 9 2 10 28% 9269 92654 17240 63%
c d 11.05 24 311 0 12 2423 29 26914 8617 4.0 36 9 2 10 28% 9022 92652 17094 62%
c u 11.10 24 311 0 12 2423 29 26914 7701 4.0 36 9 2 10 28% 9036 92652 17094 62%
c v 11.16 24 311 0 12 2423 29 26914 6686 4.0 36 9 2 10 28% 9036 92652 17094 62%
c w 11.17 24 311 0 12 2423 29 26914 6683 4.0 36 9 2 10 28% 9036 92652 17094 62%
c x 11.29 24 311 0 12 2423 29 26914 6682 4.0 36 9 2 10 28% 9038 91439 17094 62%
c = 11.61 24 311 0 12 2423 29 26914 6682 4.0 36 9 2 10 28% 12168 91427 15529 56%
c d 11.62 24 311 0 12 2423 29 26914 6416 4.0 36 9 2 10 28% 8889 91427 15529 56%
c t 11.64 24 311 0 12 2423 29 26914 6416 4.0 36 9 2 10 28% 8884 91427 15529 56%
c f 11.72 24 311 0 12 2423 29 26914 6416 4.0 36 9 2 10 28% 8946 91249 15561 57%
c u 11.77 24 311 0 12 2423 29 26914 6114 4.0 36 9 2 10 28% 8947 91249 15561 57%
c v 11.80 24 311 0 12 2423 29 26914 5982 4.0 36 9 2 10 28% 8947 91249 15561 57%
c w 11.81 24 311 0 12 2423 29 26914 5977 4.0 36 9 2 10 28% 8947 91249 15561 57%
c x 11.95 24 311 0 12 2423 29 26914 5977 4.0 36 9 2 10 28% 8947 84884 15561 57%
c = 12.23 24 311 0 12 2423 29 26914 5977 4.0 36 9 2 10 28% 10047 84884 15011 55%
c d 12.24 24 311 0 12 2423 29 26914 5937 4.0 36 9 2 10 28% 8924 84884 15011 55%
c
c  seconds   switched     rate        size/glue tier1     binary         remaining
c         MB   reductions   conflicts       size  tier2      irredundant
c           level   restarts     redundant    glue    trail         variables
c
c f 12.28 24 311 0 12 2423 29 26914 5937 4.0 36 9 2 10 28% 8926 84877 15012 55%
c - 12.85 24 312 0 13 2559 28 30260 7852 3.9 34 9 2 9 28% 8969 84877 15012 55%
c - 13.25 24 311 0 14 2654 27 33869 9825 3.7 32 8 2 9 28% 9014 84874 15012 55%
c - 14.01 24 300 0 15 2901 26 37610 11396 3.7 31 8 2 8 27% 9074 84873 15012 55%
c o 14.83 24 294 0 15 3164 26 40234 13676 3.7 32 9 2 8 27% 9114 84873 15012 55%
c c 15.21 24 291 0 15 3255 26 41244 14546 3.8 32 8 2 8 27% 9225 84100 14886 54%
c d 15.22 24 291 0 15 3255 26 41244 14147 3.8 32 8 2 8 27% 8973 84100 14886 54%
c u 15.30 24 291 0 15 3255 26 41244 11864 3.8 32 8 2 8 27% 9002 84100 14886 54%
c v 15.37 24 291 0 15 3255 26 41244 10905 3.8 32 8 2 8 27% 9005 84100 14886 54%
c w 15.42 24 291 0 15 3255 26 41244 10905 3.8 32 8 2 8 27% 9005 84100 14886 54%
c x 15.50 24 291 0 15 3255 26 41244 10905 3.8 32 8 2 8 27% 9005 79725 14886 54%
c = 15.75 24 291 0 15 3255 26 41244 10905 3.8 32 8 2 8 27% 9135 79725 14821 54%
c d 15.76 24 291 0 15 3255 26 41244 10804 3.8 32 8 2 8 27% 8990 79725 14817 54%
c t 15.78 24 291 0 15 3255 26 41244 10804 3.8 32 8 2 8 27% 8986 79725 14817 54%
c u 15.87 24 291 0 15 3255 26 41244 10350 3.8 32 8 2 8 27% 8989 79725 14817 54%
c v 15.94 24 291 0 15 3255 26 41244 9750 3.8 32 8 2 8 27% 8993 79725 14817 54%
c w 16.04 24 291 0 15 3255 26 41244 9746 3.8 32 8 2 8 27% 8993 79725 14817 54%
c x 16.11 24 291 0 15 3255 26 41244 9746 3.8 32 8 2 8 27% 8993 78156 14817 54%
c = 16.38 24 291 0 15 3255 26 41244 9746 3.8 32 8 2 8 27% 9473 78156 14577 53%
c d 16.38 24 291 0 15 3255 26 41244 9654 3.8 32 8 2 8 27% 8982 78156 14575 53%
c
c  seconds   switched     rate        size/glue tier1    binary         remaining
c         MB   reductions   conflicts       size  tier2     irredundant
c           level   restarts     redundant    glue   trail         variables
c
c t 16.41 24 291 0 15 3255 26 41244 9654 3.8 32 8 2 8 27% 8981 78156 14575 53%
c - 16.47 24 290 0 16 3255 26 41483 8519 3.8 32 8 2 8 27% 8992 78156 14575 53%
c - 16.99 24 285 0 17 3407 25 45485 10455 3.7 31 8 2 8 27% 9042 78156 14575 53%
c - 17.38 24 273 0 18 3563 24 49609 12084 3.6 29 8 2 8 26% 9065 78156 14575 53%
c s 17.93 24 267 0 18 3747 23 52111 14327 3.6 29 8 2 8 25% 9096 74655 14575 53%
c e 18.04 24 267 0 18 3747 23 52111 14327 3.6 29 8 2 8 25% 8561 75559 14200 52%
c s 18.04 24 267 0 18 3747 23 52111 14327 3.6 29 8 2 8 25% 8561 75354 14200 52%
c e 18.05 24 267 0 18 3747 23 52111 14327 3.6 29 8 2 8 25% 8551 75343 14189 52%
c ^ 18.05 24 267 0 18 3747 23 52111 14327 3.6 29 8 2 8 25% 8551 75343 14189 52%
c - 18.31 24 265 0 19 3820 23 53851 13006 3.5 29 8 2 8 25% 8584 75343 14189 52%
c - 18.76 24 255 0 20 3956 22 58210 14711 3.5 28 8 2 7 25% 8645 75343 14189 52%
c c 18.90 24 255 0 20 3983 22 58881 15270 3.4 27 8 2 7 25% 8756 74679 14089 51%
c d 18.90 24 255 0 20 3983 22 58881 14956 3.4 27 8 2 7 25% 8556 74679 14089 51%
c u 18.98 24 255 0 20 3983 22 58881 12690 3.4 27 8 2 7 25% 8590 74679 14089 51%
c v 19.03 24 255 0 20 3983 22 58881 12187 3.4 27 8 2 7 25% 8590 74679 14089 51%
c w 19.07 24 255 0 20 3983 22 58881 12185 3.4 27 8 2 7 25% 8590 74679 14089 51%
c x 19.13 24 255 0 20 3983 22 58881 12177 3.4 27 8 2 7 25% 8590 74212 14089 51%
c = 19.36 24 255 0 20 3983 22 58881 12177 3.4 27 8 2 7 25% 9132 74212 13818 50%
c d 19.37 24 255 0 20 3983 22 58881 11765 3.4 27 8 2 7 25% 8525 74212 13813 50%
c t 19.39 24 255 0 20 3983 22 58881 11765 3.4 27 8 2 7 25% 8515 74212 13813 50%
c
c  seconds   switched     rate         size/glue tier1    binary         remaining
c         MB   reductions   conflicts        size  tier2     irredundant
c           level   restarts      redundant    glue   trail         variables
c
c f 19.43 24 255 0 20 3983 22 58881 11765 3.4 27 8 2 7 25% 8516 74206 13814 50%
c c 19.50 24 255 0 20 3983 22 58881 11757 3.4 27 8 2 7 25% 8524 74174 13810 50%
c d 19.50 24 255 0 20 3983 22 58881 11757 3.4 27 8 2 7 25% 8516 74174 13810 50%
c u 19.57 24 255 0 20 3983 22 58881 11186 3.4 27 8 2 7 25% 8523 74174 13810 50%
c v 19.63 24 255 0 20 3983 22 58881 10362 3.4 27 8 2 7 25% 8526 74174 13810 50%
c w 19.67 24 255 0 20 3983 22 58881 10353 3.4 27 8 2 7 25% 8526 74174 13810 50%
c x 19.74 24 255 0 20 3983 22 58881 10351 3.4 27 8 2 7 25% 8528 72503 13810 50%
c = 19.98 24 255 0 20 3983 22 58881 10351 3.4 27 8 2 7 25% 9860 72503 13144 48%
c d 19.99 24 255 0 20 3983 22 58881 9929 3.4 27 8 2 7 25% 8472 72503 13144 48%
c t 20.01 24 255 0 20 3983 22 58881 9929 3.4 27 8 2 7 25% 8470 72503 13144 48%
c - 20.70 24 251 0 21 4215 22 62682 11709 3.4 27 8 2 7 25% 8504 72503 13144 48%
c - 21.41 24 250 0 22 4494 21 67264 13893 3.4 27 8 2 7 24% 8575 72503 13144 48%
c o 22.24 24 247 0 22 4807 22 70506 16670 3.4 27 8 2 7 25% 8615 72503 13144 48%
c - 22.50 24 246 0 23 4916 22 71954 15726 3.4 27 8 2 7 25% 8642 72503 13144 48%
c - 23.75 24 241 0 24 5437 22 76749 17325 3.4 27 8 2 7 25% 8711 72503 13144 48%
c d 23.94 24 237 0 24 5496 21 79963 19039 3.3 27 8 2 7 24% 8545 72503 13025 47%
c u 24.04 24 237 0 24 5496 21 79963 15888 3.3 27 8 2 7 24% 8572 72503 13025 47%
c v 24.13 24 237 0 24 5496 21 79963 14153 3.3 27 8 2 7 24% 8579 72503 13025 47%
c w 24.19 24 237 0 24 5496 21 79963 14043 3.3 27 8 2 7 24% 8579 72503 13025 47%
c x 24.27 24 237 0 24 5496 21 79963 14043 3.3 27 8 2 7 24% 8579 71227 13025 47%
c
c  seconds   switched     rate         size/glue tier1    binary         remaining
c         MB   reductions   conflicts        size  tier2     irredundant
c           level   restarts      redundant    glue   trail         variables
c
c = 24.44 24 237 0 24 5496 21 79963 14043 3.3 27 8 2 7 24% 8709 71227 12960 47%
c d 24.45 24 237 0 24 5496 21 79963 13863 3.3 27 8 2 7 24% 8514 71227 12955 47%
c t 24.47 24 237 0 24 5496 21 79963 13863 3.3 27 8 2 7 24% 8507 71227 12955 47%
c f 24.49 24 237 0 24 5496 21 79963 13863 3.3 27 8 2 7 24% 8510 71213 12957 47%
c c 24.55 24 237 0 24 5496 21 79963 13774 3.3 27 8 2 7 24% 8547 71033 12935 47%
c d 24.55 24 237 0 24 5496 21 79963 13774 3.3 27 8 2 7 24% 8503 71033 12935 47%
c u 24.62 24 237 0 24 5496 21 79963 12896 3.3 27 8 2 7 24% 8513 71033 12935 47%
c v 24.69 24 237 0 24 5496 21 79963 12066 3.3 27 8 2 7 24% 8514 71033 12935 47%
c w 24.77 24 237 0 24 5496 21 79963 12004 3.3 27 8 2 7 24% 8514 71033 12935 47%
c x 24.87 24 237 0 24 5496 21 79963 12001 3.3 27 8 2 7 24% 8514 67866 12935 47%
c = 25.27 24 237 0 24 5496 21 79963 12001 3.3 27 8 2 7 24% 8806 67762 12777 46%
c d 25.28 24 237 0 24 5496 21 79963 11744 3.3 27 8 2 7 24% 8490 67762 12777 46%
c - 25.42 24 232 0 25 5525 21 81651 11969 3.3 26 8 2 6 24% 8502 67760 12777 46%
c i 25.42 24 231 0 25 5525 21 82166 12291 3.3 26 8 2 6 24% 8526 67760 12776 46%
c i 25.99 24 229 0 25 5765 21 85549 15160 3.3 26 8 2 6 24% 8564 67759 12775 46%
c i 25.99 24 229 0 25 5765 21 85597 15182 3.3 26 8 2 6 24% 8567 67759 12774 46%
c i 25.99 24 229 0 25 5765 21 86187 15569 3.3 26 8 2 6 24% 8578 67759 12772 46%
c - 26.17 24 229 0 26 5837 21 86651 14317 3.3 26 8 2 6 24% 8570 67759 12772 46%
c i 26.69 24 227 0 26 6091 21 88598 16080 3.3 26 8 2 6 24% 8578 67757 12769 46%
c i 26.69 24 227 0 26 6091 21 88641 16107 3.3 26 8 2 6 24% 8582 67757 12768 46%
c
c  seconds   switched     rate         size/glue tier1    binary         remaining
c         MB   reductions   conflicts        size  tier2     irredundant
c           level   restarts      redundant    glue   trail         variables
c
c i 26.70 24 227 0 26 6091 21 88944 16273 3.3 26 8 2 6 24% 8596 67757 12767 46%
c i 26.70 24 227 0 26 6091 21 89028 16312 3.3 26 8 2 6 24% 8600 67756 12766 46%
c i 26.75 24 226 0 26 6112 21 89484 16670 3.3 26 8 2 6 24% 8606 67756 12765 46%
c i 26.75 24 226 0 26 6112 21 89509 16679 3.3 26 8 2 6 24% 8609 67756 12764 46%
c - 27.21 24 225 0 27 6296 21 91751 16153 3.3 26 8 2 6 24% 8611 67756 12764 46%
c s 27.62 24 219 0 27 6428 20 95806 19454 3.2 25 8 2 6 24% 8630 65174 12764 46%
c e 27.74 24 219 0 27 6428 20 95806 19454 3.2 25 8 2 6 24% 5756 72054 11220 41%
c 2 27.74 24 219 0 27 6428 20 95806 19454 3.2 25 8 2 6 24% 5753 72054 11220 41%
c s 27.77 24 219 0 27 6428 20 95806 19454 3.2 25 8 2 6 24% 5753 71626 11220 41%
c e 27.78 24 219 0 27 6428 20 95806 19454 3.2 25 8 2 6 24% 5744 71646 11211 41%
c ^ 27.78 24 219 0 27 6428 20 95806 19454 3.2 25 8 2 6 24% 5744 71646 11211 41%
c i 27.78 24 218 0 27 6428 20 95838 14407 3.2 25 8 2 6 24% 5752 71645 11210 41%
c i 27.78 24 218 0 27 6428 20 95843 14407 3.2 25 8 2 6 24% 5753 71645 11209 41%
c - 28.28 24 217 0 28 6648 20 96947 14014 3.2 25 8 2 6 24% 5749 71633 11209 41%
c i 28.29 24 217 0 28 6653 20 96965 14026 3.2 25 8 2 6 24% 5751 71633 11208 41%
c i 28.91 24 213 0 28 6913 20 100271 16891 3.2 25 8 2 6 24% 5786 71632 11207 41%
c i 29.07 24 213 0 28 6981 20 100624 17208 3.2 25 8 2 6 25% 5791 71632 11206 41%
c i 29.26 24 212 0 28 7069 20 101294 17840 3.2 25 8 2 6 25% 5796 71631 11205 41%
c i 29.39 24 211 0 28 7143 20 101808 18308 3.2 25 8 2 6 25% 5808 71631 11204 41%
c - 29.43 24 211 0 29 7162 20 102239 16413 3.2 25 8 2 6 25% 5794 71631 11204 41%
c
c  seconds   switched     rate          size/glue tier1    binary         remaining
c         MB   reductions   conflicts         size  tier2     irredundant
c           level   restarts       redundant    glue   trail         variables
c
c i 29.73 24 209 0 29 7272 20 104534 18272 3.1 24 8 2 6 24% 5809 71631 11203 41%
c c 29.79 24 209 0 29 7278 20 104625 18358 3.1 24 8 2 6 24% 5834 71251 11162 41%
c d 29.80 24 209 0 29 7278 20 104625 18071 3.1 24 8 2 6 24% 5758 71245 11162 41%
c d 29.80 24 209 0 29 7278 20 104625 18064 3.1 24 8 2 6 24% 5752 71245 11159 41%
c u 29.89 24 209 0 29 7278 20 104625 14854 3.1 24 8 2 6 24% 5772 71245 11159 41%
c v 29.97 24 209 0 29 7278 20 104625 12667 3.1 24 8 2 6 24% 5775 71245 11159 41%
c w 30.04 24 209 0 29 7278 20 104625 12655 3.1 24 8 2 6 24% 5775 71245 11159 41%
c x 30.12 24 209 0 29 7278 20 104625 12654 3.1 24 8 2 6 24% 5775 71224 11159 41%
c = 30.55 24 209 0 29 7278 20 104625 12654 3.1 24 8 2 6 24% 5817 71208 11138 40%
c d 30.55 24 209 0 29 7278 20 104625 12603 3.1 24 8 2 6 24% 5749 71208 11138 40%
c t 30.57 24 209 0 29 7278 20 104625 12603 3.1 24 8 2 6 24% 5744 71208 11138 40%
c u 30.76 24 209 0 29 7278 20 104625 11755 3.1 24 8 2 6 24% 5747 71208 11138 40%
c v 30.81 24 209 0 29 7278 20 104625 11234 3.1 24 8 2 6 24% 5747 71208 11138 40%
c w 30.91 24 209 0 29 7278 20 104625 11113 3.1 24 8 2 6 24% 5747 71208 11138 40%
c d 31.34 24 209 0 29 7278 20 104625 11113 3.1 24 8 2 6 24% 5745 71204 11137 40%
c i 31.51 24 207 0 29 7341 20 106023 12286 3.1 24 8 2 6 24% 5761 71204 11136 40%
c i 31.54 24 207 0 29 7344 20 106285 12537 3.1 24 8 2 6 24% 5761 71204 11135 40%
c i 31.56 24 207 0 29 7358 20 106453 12682 3.1 24 8 2 6 25% 5765 71204 11134 40%
c i 31.71 24 205 0 29 7433 19 107624 13729 3.1 24 8 2 6 24% 5772 71204 11131 40%
c - 31.72 24 205 0 30 7433 19 107624 12101 3.1 24 8 2 6 24% 5782 71204 11131 40%
c
c  seconds   switched     rate          size/glue tier1    binary         remaining
c         MB   reductions   conflicts         size  tier2     irredundant
c           level   restarts       redundant    glue   trail         variables
c
c i 31.93 24 201 0 30 7558 19 109662 13927 3.1 24 8 2 6 24% 5787 71204 11130 40%
c i 31.98 24 201 0 30 7592 19 109942 14168 3.1 24 8 2 6 24% 5794 71204 11129 40%
c i 31.99 24 201 0 30 7596 19 110144 14303 3.1 24 8 2 6 24% 5801 71204 11128 40%
c i 31.99 24 200 0 30 7602 19 110244 14382 3.1 24 8 2 6 24% 5803 71204 11127 40%
c i 32.00 24 200 0 30 7618 19 110386 14488 3.1 24 8 2 6 24% 5809 71204 11125 40%
c i 32.00 24 200 0 30 7618 19 110389 14488 3.1 24 8 2 6 24% 5810 71204 11124 40%
c o 32.01 24 200 0 30 7623 19 110559 14635 3.1 24 8 2 6 24% 5811 71204 11124 40%
c i 32.03 24 199 0 30 7642 19 110996 14978 3.1 24 8 2 6 24% 5818 71204 11123 40%
c i 32.05 24 198 0 30 7650 19 111260 15170 3.1 24 8 2 6 24% 5823 71204 11121 40%
c } 32.05 24 197 0 30 7650 19 111573 15377 3.1 24 8 2 6 24% 5833 71204 11108 40%
c 0 32.05 24 197 0 30 7650 19 111573 15377 3.1 24 8 2 6 24% 5833 71204 11108 40%
c
c ---- [ result ] ------------------------------------------------------------
c
s UNSATISFIABLE
c
c ---- [ profiling ] ---------------------------------------------------------
c
c          21.57   67.30 %  search
c          21.57   67.30 %  focused
c           9.85   30.73 %  simplify
c           9.45   29.47 %  probe
c           3.87   12.07 %  sweep
c           3.40   10.61 %  vivify
c           0.77    2.39 %  factor
c           0.72    2.23 %  eliminate
c           0.65    2.04 %  congruence
c           0.54    1.70 %  substitute
c           0.54    1.68 %  preprocess
c           0.21    0.67 %  fastel
c           0.19    0.60 %  reduce
c           0.14    0.45 %  transitive
c           0.13    0.40 %  subsume
c           0.07    0.21 %  backbone
c           0.06    0.18 %  lucky
c           0.03    0.11 %  parse
c =============================================
c          32.05  100.00 %  total
c
c ---- [ statistics ] --------------------------------------------------------
c
c chronological:                         4120                4 %  conflicts
c conflicts:                           111573             3480.96 per second
c congruent:                             2446                9 %  variables
c decisions:                          2106271               18.88 per conflict
c eliminated:                           13060               47 %  variables
c factored:                              5687               21 %  variables
c fast_eliminated:                       8865               68 %  eliminated
c fast_strengthened:                      221               18 %  per strengthened
c fast_subsumed:                           40                0 %  per subsumed
c iterations:                              31                0 %  variables
c propagations:                      89471743          2791428    per second
c reductions:                              30             3719    interval
c reordered:                                5            22315    interval
c restarts:                              7650               15    interval
c strengthened:                          1244                0 %  checks
c substituted:                           8959               33 %  variables
c subsumed:                             13563                1 %  checks
c switched:                                 0                0    interval
c vivified:                             61000               13 %  checks
c
c ---- [ glue usage ] --------------------------------------------------------
c
c focused glue 2 used 59867 clauses 22.27% accumulated 71.21% tier1
c focused glue 3 used 21830 clauses  8.12% accumulated 79.34%
c focused glue 4 used 13910 clauses  5.18% accumulated 84.51%
c focused glue 5 used  9550 clauses  3.55% accumulated 88.06%
c focused glue 6 used  6943 clauses  2.58% accumulated 90.65% tier2
c
c ---- [ resources ] ---------------------------------------------------------
c
c maximum-resident-set-size:         25198592 bytes         24 MB
c process-time:                            32s              32.05 seconds
c
c ---- [ shutting down ] -----------------------------------------------------
c
c exit 20
